letting n_nurses=25
letting n_days=7
letting n_shift_types=4
letting max_covers=8
letting t_covers=87
letting covers=[6,8,3,0,5,6,3,0,7,6,3,0,5,2,2,0,4,2,4,0,1,4,4,0,6,3,3,0]
letting prefes=[3,1,3,3,1,4,4,1,2,2,1,1,1,1,3,3,3,2,2,3,4,2,4,4,4,1,1,1,3,1,3,3,1,4,4,1,2,2,1,1,3,3,3,3,3,2,2,3,4,2,4,4,4,1,1,1,1,1,3,3,1,4,4,1,1,1,1,1,3,3,3,3,3,1,1,3,4,4,2,4,4,1,1,1,3,1,3,3,1,4,4,1,1,1,1,1,1,3,3,3,3,1,1,3,4,2,4,4,4,1,1,1,1,1,3,3,1,1,4,1,2,1,1,1,1,3,3,3,3,1,1,3,4,2,4,4,4,1,1,1,3,1,1,1,4,4,4,4,2,1,1,1,1,3,3,3,3,1,1,3,4,4,4,4,4,4,4,4,3,1,3,3,4,4,4,4,2,1,1,1,1,3,3,3,3,1,1,3,1,4,4,4,1,4,4,4,3,1,3,3,1,1,1,1,2,2,1,1,1,3,3,3,1,2,2,1,4,4,4,1,4,1,1,1,3,3,3,3,4,4,4,1,2,1,1,1,3,3,3,3,3,1,1,3,4,4,4,4,4,1,4,1,3,1,1,1,1,4,1,1,2,1,1,1,1,1,1,1,3,1,1,3,4,4,2,1,4,1,1,1,3,1,3,3,1,4,1,1,2,1,1,1,1,3,3,3,3,1,1,3,4,4,4,1,4,1,1,1,3,1,3,3,4,4,4,4,2,1,2,2,1,1,3,3,3,1,1,3,4,4,4,4,4,4,4,4,1,1,1,1,1,1,4,1,2,1,2,2,1,3,3,3,3,1,1,3,1,4,4,4,1,1,1,1,1,1,3,3,1,1,1,1,2,1,1,1,1,3,3,3,3,1,1,3,4,4,4,1,4,1,1,1,3,3,3,3,1,4,4,1,2,1,1,1,1,3,1,1,3,1,1,3,4,4,4,4,4,1,1,1,3,1,1,1,1,4,4,1,2,2,2,2,1,1,3,3,3,2,2,3,4,4,4,4,4,1,1,1,3,1,1,1,1,4,4,1,2,2,1,1,1,3,3,3,3,2,2,3,4,4,4,4,4,1,1,1,3,1,3,3,1,4,1,1,1,1,1,1,1,3,3,3,1,1,1,1,4,4,2,1,4,1,1,1,3,1,3,3,1,4,4,1,2,1,2,2,1,1,1,1,1,1,1,1,4,4,4,4,4,1,1,1,3,3,3,3,1,4,4,1,2,1,1,1,1,3,1,1,3,1,1,3,4,4,4,4,4,1,1,1,3,1,3,3,4,4,4,4,1,1,1,1,1,3,3,3,1,1,1,1,4,4,4,4,4,4,4,4,3,3,3,3,1,4,4,1,2,1,2,2,3,3,1,1,3,1,1,3,1,4,2,4,1,1,1,1,3,3,3,3,1,1,4,1,2,1,1,1,3,3,3,3,1,1,1,1,1,4,4,4,1,1,1,1,1,1,3,3,1,4,4,1,1,1,1,1,1,3,3,3,3,1,1,3,4,4,4,4,4,1,1,1,3,1,3,3,1,4,4,4,2,1,1,1,1,3,3,3,3,1,1,3,1,2,2,4,1,4,1,4]
letting ub =  257
